\ LP format - for model browsing. Use MPS format to capture full model detail.
Maximize
  2 x_1 + 7 x_2 + 8 x_3 + 6 x_4 + 3 x_5 + x_6 + x_7 + 7 x_8 + 9 x_9 + 7 x_10
Subject To
 C_1: 2 x_1 + x_2 + 3 x_3 + 9 x_4 + 3 x_5 + 8 x_6 + x_7 + 3 x_8 + 4 x_9
   + 3 x_10 <= 18
 C_2: x_1 + 10 x_2 + x_3 + 9 x_4 + 6 x_5 + 6 x_6 + 9 x_7 + 2 x_8 + 10 x_9
   + 3 x_10 <= 28
 C_3: 3 x_1 + 3 x_2 + 9 x_3 + 2 x_4 + x_5 + 3 x_6 + 5 x_7 + x_8 + 2 x_9
   + 5 x_10 <= 17
 C_4: 9 x_1 + 3 x_2 + 7 x_3 + x_4 + 3 x_5 + 2 x_6 + 10 x_7 + 4 x_8 + 4 x_9
   + 3 x_10 <= 23
 C_5: 8 x_1 + 4 x_2 + 2 x_3 + 9 x_4 + 4 x_5 + 10 x_6 + 4 x_7 + 4 x_8 + x_9
   + 6 x_10 <= 26
Bounds
Binaries
 x_1 x_2 x_3 x_4 x_5 x_6 x_7 x_8 x_9 x_10
End
